jobs  (incl. supersource/sink ):	102
RESOURCES
- renewable                 : 2 R
- nonrenewable              : 2 N
- doubly constrained        : 0 D
************************************************************************
PRECEDENCE RELATIONS:
jobnr.    #modes  #successors   successors
1	1	32		2 3 4 5 6 7 8 9 10 11 12 13 14 15 16 17 18 19 21 22 24 25 27 28 29 32 33 39 40 42 45 55 
2	3	16		82 72 67 64 60 59 54 53 50 44 37 36 35 31 30 26 
3	3	18		82 72 71 70 67 65 63 62 61 60 56 53 52 51 49 47 44 38 
4	3	15		83 74 72 71 67 64 61 59 53 52 51 49 46 37 23 
5	3	12		100 86 67 63 62 61 59 54 46 43 41 20 
6	3	19		89 88 85 84 83 82 72 70 69 65 64 62 61 60 59 58 49 37 31 
7	3	12		100 86 85 70 62 61 56 43 38 37 34 31 
8	3	12		101 100 86 85 70 67 63 61 58 56 31 20 
9	3	15		100 97 83 82 72 66 65 63 62 61 60 56 53 38 36 
10	3	14		101 95 85 72 70 63 60 57 53 52 50 48 41 38 
11	3	14		93 89 86 83 82 70 68 67 61 59 58 56 52 23 
12	3	14		85 83 82 74 72 71 70 67 66 64 62 48 37 36 
13	3	21		98 96 95 94 90 88 86 85 84 82 73 72 71 64 63 61 60 57 53 52 51 
14	3	17		100 97 95 91 88 87 85 82 79 78 73 70 69 66 65 63 38 
15	3	12		100 97 88 85 74 73 65 64 59 58 53 35 
16	3	12		97 95 90 87 86 83 70 69 63 60 53 38 
17	3	11		95 90 88 85 83 73 65 63 56 52 38 
18	3	14		98 94 93 86 83 82 81 77 72 69 67 60 52 46 
19	3	13		93 91 89 88 86 83 80 70 66 63 62 58 48 
20	3	13		98 96 95 94 83 71 69 65 60 57 53 52 51 
21	3	12		99 97 96 86 85 81 80 72 67 63 61 47 
22	3	17		99 98 97 96 95 93 88 86 85 83 81 80 78 70 63 57 56 
23	3	14		100 99 97 92 88 80 79 78 69 66 65 63 62 57 
24	3	21		101 99 97 96 95 94 93 92 91 89 87 86 85 82 81 80 79 78 77 71 69 
25	3	12		100 99 93 92 90 84 81 73 70 63 56 52 
26	3	11		96 91 88 86 83 80 70 65 63 58 56 
27	3	13		99 98 96 93 91 89 88 80 79 66 65 63 59 
28	3	9		99 98 96 94 85 81 64 54 52 
29	3	13		99 98 96 95 92 89 87 86 85 82 79 72 52 
30	3	12		99 98 96 95 94 93 85 79 77 70 69 52 
31	3	11		99 98 94 93 90 81 77 73 71 57 52 
32	3	14		97 96 94 93 90 88 87 85 84 81 79 76 74 63 
33	3	14		98 97 95 94 93 92 91 90 88 81 80 79 76 63 
34	3	14		98 95 94 92 91 90 88 83 81 80 79 78 75 69 
35	3	13		98 93 92 91 90 86 84 81 80 79 76 70 63 
36	3	13		95 94 93 89 88 87 86 80 79 78 77 75 69 
37	3	12		99 98 94 93 92 91 87 80 79 78 76 63 
38	3	9		98 96 94 89 84 80 75 64 59 
39	3	12		101 98 96 95 93 91 81 80 78 77 75 69 
40	3	11		96 95 87 84 82 80 79 78 76 70 63 
41	3	9		93 92 91 88 78 77 76 75 66 
42	3	8		98 96 92 89 86 73 65 63 
43	3	6		94 90 88 77 64 60 
44	3	10		101 100 95 93 90 85 81 79 78 76 
45	3	10		98 97 95 93 84 80 78 77 76 75 
46	3	9		97 96 95 91 89 85 84 79 70 
47	3	9		100 98 95 94 93 92 88 78 69 
48	3	8		100 99 97 92 81 79 77 75 
49	3	7		95 91 86 81 78 77 75 
50	3	6		99 92 90 79 78 69 
51	3	6		92 89 87 78 77 76 
52	3	5		97 91 80 78 75 
53	3	5		91 81 79 77 76 
54	3	5		79 78 77 76 75 
55	3	5		81 80 77 76 75 
56	3	4		94 79 75 69 
57	3	4		91 87 76 75 
58	3	4		95 78 76 75 
59	3	3		81 77 76 
60	3	3		99 80 78 
61	3	3		91 78 76 
62	3	3		96 95 77 
63	3	2		77 75 
64	3	2		93 92 
65	3	2		81 75 
66	3	2		94 90 
67	3	2		92 79 
68	3	2		92 78 
69	3	1		76 
70	3	1		75 
71	3	1		75 
72	3	1		75 
73	3	1		75 
74	3	1		89 
75	3	1		102 
76	3	1		102 
77	3	1		102 
78	3	1		102 
79	3	1		102 
80	3	1		102 
81	3	1		102 
82	3	1		102 
83	3	1		102 
84	3	1		102 
85	3	1		102 
86	3	1		102 
87	3	1		102 
88	3	1		102 
89	3	1		102 
90	3	1		102 
91	3	1		102 
92	3	1		102 
93	3	1		102 
94	3	1		102 
95	3	1		102 
96	3	1		102 
97	3	1		102 
98	3	1		102 
99	3	1		102 
100	3	1		102 
101	3	1		102 
102	1	0		
************************************************************************
REQUESTS/DURATIONS
jobnr.	mode	dur	R1	R2	N1	N2	
------------------------------------------------------------------------
1	1	0	0	0	0	0	
2	1	1	3	0	8	10	
	2	2	2	0	6	9	
	3	10	2	0	6	8	
3	1	7	3	0	4	3	
	2	8	2	0	3	2	
	3	9	0	3	2	2	
4	1	2	0	5	6	6	
	2	3	2	0	6	4	
	3	5	2	0	5	3	
5	1	6	0	5	6	8	
	2	7	0	3	5	6	
	3	10	4	0	4	4	
6	1	4	1	0	10	9	
	2	4	0	4	5	7	
	3	10	0	4	2	4	
7	1	3	4	0	6	10	
	2	5	3	0	4	8	
	3	8	0	4	2	7	
8	1	1	4	0	9	8	
	2	5	0	3	6	4	
	3	9	0	3	2	2	
9	1	3	4	0	3	9	
	2	6	0	3	2	10	
	3	7	0	3	2	9	
10	1	2	2	0	9	6	
	2	6	0	2	8	5	
	3	7	1	0	7	4	
11	1	2	2	0	4	4	
	2	2	0	1	2	4	
	3	8	0	1	1	4	
12	1	3	0	4	9	10	
	2	7	0	2	8	6	
	3	9	0	1	8	5	
13	1	2	2	0	2	10	
	2	8	0	1	2	10	
	3	10	1	0	2	10	
14	1	3	0	3	3	8	
	2	4	0	2	3	7	
	3	7	2	0	3	6	
15	1	4	1	0	9	9	
	2	6	1	0	9	7	
	3	9	0	1	9	6	
16	1	4	0	3	7	10	
	2	5	0	2	5	6	
	3	8	2	0	1	5	
17	1	8	0	2	3	9	
	2	9	4	0	3	9	
	3	10	0	1	3	9	
18	1	7	0	5	7	5	
	2	9	4	0	6	4	
	3	10	0	5	5	4	
19	1	2	4	0	3	5	
	2	3	0	3	3	4	
	3	5	3	0	1	3	
20	1	1	0	3	9	7	
	2	8	1	0	6	4	
	3	10	0	1	6	4	
21	1	2	5	0	7	7	
	2	3	0	1	7	5	
	3	9	0	1	7	4	
22	1	3	2	0	8	4	
	2	4	2	0	7	4	
	3	5	0	4	5	4	
23	1	5	5	0	10	7	
	2	5	0	2	7	5	
	3	6	0	2	6	3	
24	1	1	0	1	5	8	
	2	1	1	0	4	7	
	3	10	0	1	2	7	
25	1	6	0	4	7	4	
	2	10	2	0	5	4	
	3	10	0	3	3	4	
26	1	3	0	4	3	6	
	2	4	0	3	3	6	
	3	10	0	2	3	3	
27	1	1	0	4	7	3	
	2	2	1	0	7	2	
	3	7	1	0	5	2	
28	1	3	4	0	7	6	
	2	5	0	4	4	4	
	3	10	4	0	2	4	
29	1	4	3	0	6	8	
	2	9	0	2	5	7	
	3	9	2	0	4	6	
30	1	4	0	4	4	8	
	2	6	0	3	4	8	
	3	10	0	1	4	6	
31	1	5	4	0	4	7	
	2	7	0	3	3	7	
	3	10	0	3	3	6	
32	1	1	5	0	7	7	
	2	2	4	0	6	4	
	3	8	0	3	5	2	
33	1	2	0	5	5	3	
	2	4	0	2	3	3	
	3	6	2	0	1	3	
34	1	1	0	4	8	3	
	2	7	0	3	4	1	
	3	9	2	0	2	1	
35	1	1	0	3	2	7	
	2	5	3	0	2	4	
	3	8	0	2	2	2	
36	1	5	0	4	5	9	
	2	7	0	3	3	7	
	3	8	0	3	3	5	
37	1	4	5	0	8	2	
	2	6	0	3	7	1	
	3	10	0	3	5	1	
38	1	8	5	0	5	7	
	2	9	4	0	4	7	
	3	10	0	3	4	7	
39	1	2	0	2	7	6	
	2	7	2	0	6	6	
	3	8	0	2	6	5	
40	1	4	5	0	6	5	
	2	5	4	0	5	5	
	3	9	3	0	5	3	
41	1	6	3	0	6	1	
	2	7	2	0	5	1	
	3	8	0	2	5	1	
42	1	3	0	4	9	4	
	2	4	0	3	3	3	
	3	5	0	2	2	3	
43	1	4	5	0	4	4	
	2	7	0	4	3	3	
	3	9	0	3	3	2	
44	1	5	0	3	4	6	
	2	5	2	0	4	3	
	3	7	0	2	2	3	
45	1	4	3	0	5	8	
	2	6	0	3	5	7	
	3	10	0	2	5	4	
46	1	2	0	2	3	10	
	2	8	0	2	3	7	
	3	8	2	0	1	3	
47	1	5	0	4	6	7	
	2	6	0	3	6	6	
	3	7	2	0	6	4	
48	1	5	0	2	5	4	
	2	6	0	1	4	3	
	3	7	0	1	4	2	
49	1	3	0	2	4	6	
	2	4	4	0	3	6	
	3	6	0	1	3	6	
50	1	4	2	0	3	3	
	2	9	2	0	3	2	
	3	10	0	2	3	3	
51	1	2	0	3	7	6	
	2	4	0	2	5	5	
	3	10	4	0	5	5	
52	1	7	4	0	7	8	
	2	8	3	0	6	5	
	3	10	3	0	4	4	
53	1	1	0	4	10	5	
	2	1	2	0	9	4	
	3	2	2	0	9	2	
54	1	2	0	2	3	8	
	2	3	0	2	2	7	
	3	9	3	0	2	7	
55	1	4	0	4	4	10	
	2	6	2	0	3	9	
	3	8	0	1	2	9	
56	1	2	4	0	7	8	
	2	7	3	0	7	7	
	3	8	2	0	7	7	
57	1	3	0	3	8	6	
	2	6	0	3	5	4	
	3	10	1	0	4	3	
58	1	2	0	5	7	9	
	2	3	0	4	4	8	
	3	10	0	4	4	7	
59	1	1	4	0	6	4	
	2	2	4	0	5	2	
	3	6	4	0	5	1	
60	1	5	0	4	4	5	
	2	6	3	0	4	5	
	3	6	0	4	3	1	
61	1	1	0	3	7	7	
	2	2	2	0	4	5	
	3	2	0	1	2	4	
62	1	4	0	5	10	5	
	2	6	0	4	9	4	
	3	9	2	0	9	4	
63	1	8	5	0	6	4	
	2	8	0	3	6	3	
	3	10	0	2	6	3	
64	1	3	0	5	6	10	
	2	5	0	4	6	8	
	3	8	0	2	6	6	
65	1	3	0	5	10	3	
	2	4	1	0	10	2	
	3	8	0	4	10	2	
66	1	2	0	2	8	7	
	2	7	0	1	6	5	
	3	10	2	0	6	2	
67	1	2	0	3	5	10	
	2	9	4	0	4	6	
	3	9	0	3	3	4	
68	1	1	0	3	5	8	
	2	4	4	0	5	6	
	3	9	4	0	5	1	
69	1	5	5	0	4	7	
	2	9	0	3	3	6	
	3	10	0	2	3	4	
70	1	4	0	3	6	5	
	2	7	0	3	5	4	
	3	9	0	3	4	4	
71	1	2	0	1	8	10	
	2	7	0	1	6	6	
	3	8	0	1	2	6	
72	1	1	0	3	5	8	
	2	4	1	0	4	8	
	3	7	0	2	1	8	
73	1	6	0	5	4	6	
	2	8	2	0	3	4	
	3	10	2	0	2	4	
74	1	1	0	1	6	9	
	2	4	0	1	5	7	
	3	9	0	1	3	4	
75	1	2	0	4	5	7	
	2	5	3	0	5	7	
	3	6	0	4	3	7	
76	1	2	0	4	2	10	
	2	3	0	3	2	10	
	3	5	0	1	2	10	
77	1	1	5	0	8	7	
	2	2	0	5	6	7	
	3	5	0	5	4	7	
78	1	2	3	0	7	7	
	2	3	0	2	5	4	
	3	4	0	1	4	4	
79	1	1	1	0	9	5	
	2	2	0	1	7	4	
	3	4	0	1	4	3	
80	1	1	3	0	10	4	
	2	5	2	0	9	4	
	3	6	2	0	9	3	
81	1	3	4	0	1	10	
	2	4	0	2	1	7	
	3	10	0	1	1	3	
82	1	7	0	5	10	1	
	2	7	1	0	10	2	
	3	10	1	0	10	1	
83	1	2	0	2	8	7	
	2	8	0	2	7	5	
	3	8	2	0	6	5	
84	1	1	0	4	8	8	
	2	3	2	0	5	8	
	3	8	1	0	4	8	
85	1	4	0	2	6	7	
	2	6	1	0	2	6	
	3	7	1	0	2	2	
86	1	2	0	4	7	9	
	2	7	0	3	7	9	
	3	9	0	3	7	8	
87	1	6	1	0	9	8	
	2	7	0	5	7	8	
	3	10	1	0	7	6	
88	1	1	3	0	8	8	
	2	1	0	4	5	6	
	3	7	0	4	2	5	
89	1	7	0	5	9	5	
	2	8	0	4	8	5	
	3	9	1	0	8	3	
90	1	1	4	0	9	7	
	2	2	0	3	5	6	
	3	7	3	0	2	6	
91	1	1	0	4	2	7	
	2	8	2	0	2	6	
	3	9	2	0	2	5	
92	1	6	0	5	7	3	
	2	9	4	0	7	2	
	3	10	0	2	5	2	
93	1	2	5	0	4	3	
	2	6	0	2	3	3	
	3	10	0	1	2	2	
94	1	2	5	0	6	5	
	2	6	0	2	4	5	
	3	9	0	1	3	5	
95	1	6	0	3	9	6	
	2	7	0	3	7	6	
	3	7	1	0	5	6	
96	1	3	0	3	8	9	
	2	7	0	1	7	6	
	3	8	0	1	7	5	
97	1	1	0	4	10	3	
	2	6	2	0	10	2	
	3	10	0	2	10	2	
98	1	4	5	0	7	7	
	2	7	0	1	6	7	
	3	9	2	0	5	7	
99	1	1	5	0	6	6	
	2	4	5	0	6	5	
	3	6	5	0	6	4	
100	1	2	0	4	5	9	
	2	4	0	4	3	8	
	3	10	0	3	2	6	
101	1	2	4	0	4	7	
	2	4	3	0	4	7	
	3	5	2	0	4	7	
102	1	0	0	0	0	0	
************************************************************************

 RESOURCE AVAILABILITIES 
	R 1	R 2	N 1	N 2
	65	73	467	500

************************************************************************
